# Solution for model GasLib-40
# Objective value = 1.4135841648752843e+01
loadshed[innode_1] 0
loadshed[innode_2] 0
loadshed[innode_3] 0
loadshed[innode_4] 0
loadshed[innode_5] 0
loadshed[innode_6] 0
loadshed[innode_7] 0
loadshed[innode_8] 0
loadshed[source_1] -1.5044660719642144e-01
loadshed[source_2] 1.4056860586917685e-02
loadshed[source_3] 2.2580600830156106e-01
loadshed[sink_1] 0
loadshed[sink_2] 0
loadshed[sink_3] 0
loadshed[sink_4] 0
loadshed[sink_5] 0
loadshed[sink_6] 0
loadshed[sink_7] 0
loadshed[sink_8] 0
loadshed[sink_9] 0
loadshed[sink_10] 0
loadshed[sink_11] 0
loadshed[sink_12] 8.6435719635686170e-01
loadshed[sink_13] 0
loadshed[sink_14] 0
loadshed[sink_15] 0
loadshed[sink_16] 0
loadshed[sink_17] 0
loadshed[sink_18] 0
loadshed[sink_19] 0
loadshed[sink_20] 0
loadshed[sink_21] 0
loadshed[sink_22] 0
loadshed[sink_23] 0
loadshed[sink_24] 0
loadshed[sink_25] 0
loadshed[sink_26] 0
loadshed[sink_27] 0
loadshed[sink_28] 0
loadshed[sink_29] 0
flow[source_1,sink_3] 1.8187442370018425e+02
flow[innode_1,sink_16] 1.6354166666666970e+01
flow[innode_6,sink_13] -7.9133765348259
flow[sink_13,sink_14] -2.4267543201492568e+01
flow[sink_14,sink_10] -4.0621709868159236e+01
flow[sink_25,sink_26] 2.3117665835124811e+02
flow[sink_26,sink_9] 1.3893311836477582e+02
flow[sink_9,sink_18] 1.2257895169810915e+02
flow[sink_26,sink_4] 7.5889373319805486e+01
flow[sink_4,sink_20] 5.9535206653138971e+01
flow[sink_18,sink_6] 1.0622478503144248e+02
flow[sink_25,innode_8] -1.4916609036684787e+02
flow[sink_6,sink_7] 5.7162285031442025e+01
flow[sink_6,sink_22] 3.2708333333333641e+01
flow[sink_7,sink_24] 3.4926658351247163e+01
flow[sink_22,sink_1] 1.6354166666666970e+01
flow[sink_24,sink_21] 1.8572491684580491e+01
flow[sink_21,sink_12] 2.2183250179138234e+00
flow[sink_7,sink_5] 5.8814600135277288e+00
flow[sink_5,sink_17] -1.0472706653138857e+01
flow[sink_17,sink_4] 0
flow[sink_17,sink_8] -2.6826873319805689e+01
flow[sink_3,sink_23] 16.3541666666697
flow[sink_8,sink_20] -4.3181039986472356e+01
flow[sink_25,sink_20] 0
flow[sink_25,sink_15] -9.0451358116240570e+01
flow[sink_15,sink_29] -5.9911943980840007e+01
flow[sink_29,sink_28] 1.6354166666667879e+01
flow[sink_29,sink_2] 6.3247747468733905e+01
flow[sink_2,sink_15] 4.6893580802067241e+01
flow[sink_29,innode_7] -1.5586802478290846e+02
flow[innode_4,sink_19] 4.7577206911173867e+01
flow[sink_19,innode_3] 4.3765515858817807e+01
flow[innode_4,innode_5] 7.4815336290318939e+01
flow[sink_27,innode_5] -7.4815336290318939e+01
flow[sink_27,sink_19] 5.8461169623652268e+01
flow[sink_10,sink_11] 3.2708333333333641e+01
flow[sink_10,innode_2] -4.5918694009341735e+01
flow[sink_10,innode_3] -4.3765515858817807e+01
flow[innode_6,sink_25] 7.9133765348259
flow[sink_11,innode_1] 1.6354166666666970e+01
flow[sink_19,innode_2] 4.5918694009341735e+01
flow[source_3,innode_4] 1.2239254320149280e+02
flow[source_2,innode_7] 1.5586802478290846e+02
flow[sink_3,innode_8] 1.4916609036684787e+02
pressure[innode_1] 76.5070821841994
pressure[innode_2] 79.0857761206142
pressure[innode_3] 78.9888623416519
pressure[innode_4] 81.01325
pressure[innode_5] 8.0961788066674615e+01
pressure[innode_6] 7.4650379695765253e+01
pressure[innode_7] 81.01325
pressure[innode_8] 8.0405313280118463e+01
pressure[source_1] 81.01325
pressure[source_2] 81.01325
pressure[source_3] 81.01325
pressure[sink_1] 4.0680370235948054e+01
pressure[sink_2] 7.5242254126547323e+01
pressure[sink_3] 8.0405313280118463e+01
pressure[sink_4] 4.8719972076263154e+01
pressure[sink_5] 3.9550692700578040e+01
pressure[sink_6] 4.2781447846335425e+01
pressure[sink_7] 4.1996745927118980e+01
pressure[sink_8] 41.3430812721983
pressure[sink_9] 5.0053237699969806e+01
pressure[sink_10] 7.6658783491802950e+01
pressure[sink_11] 76.5070821841994
pressure[sink_12] 1.01325
pressure[sink_13] 7.4694004818153672e+01
pressure[sink_14] 7.4737433653850417e+01
pressure[sink_15] 7.5089156920407319e+01
pressure[sink_16] 7.5485432349381725e+01
pressure[sink_17] 4.0330833647338956e+01
pressure[sink_18] 4.5617965879423494e+01
pressure[sink_19] 79.0857761206142
pressure[sink_20] 4.4352192492586234e+01
pressure[sink_21] 1.8026514507748848e+00
pressure[sink_22] 4.1744139378303061e+01
pressure[sink_23] 8.0240595268458662e+01
pressure[sink_24] 2.0083245402788594e+00
pressure[sink_25] 7.4650379695765253e+01
pressure[sink_26] 5.8368743410609476e+01
pressure[sink_27] 80.3409590193419
pressure[sink_28] 7.6549108675725563e+01
pressure[sink_29] 7.6844390949342753e+01
interdiction[source_1,sink_3] 0
interdiction[innode_1,sink_16] 0
interdiction[innode_6,sink_13] 0
interdiction[sink_13,sink_14] 0
interdiction[sink_14,sink_10] 0
interdiction[sink_25,sink_26] 0
interdiction[sink_26,sink_9] 0
interdiction[sink_9,sink_18] 0
interdiction[sink_26,sink_4] 0
interdiction[sink_4,sink_20] 0
interdiction[sink_18,sink_6] 0
interdiction[sink_25,innode_8] 0
interdiction[sink_6,sink_7] 0
interdiction[sink_6,sink_22] 0
interdiction[sink_7,sink_24] 0
interdiction[sink_22,sink_1] 0
interdiction[sink_24,sink_21] 0
interdiction[sink_21,sink_12] 0
interdiction[sink_7,sink_5] 0
interdiction[sink_5,sink_17] 0
interdiction[sink_17,sink_4] 1
interdiction[sink_17,sink_8] 0
interdiction[sink_3,sink_23] 0
interdiction[sink_8,sink_20] 0
interdiction[sink_25,sink_20] 1
interdiction[sink_25,sink_15] 0
interdiction[sink_15,sink_29] 0
interdiction[sink_29,sink_28] 0
interdiction[sink_29,sink_2] 0
interdiction[sink_2,sink_15] 0
interdiction[sink_29,innode_7] 0
interdiction[innode_4,sink_19] 0
interdiction[sink_19,innode_3] 0
interdiction[innode_4,innode_5] 0
interdiction[sink_27,innode_5] 0
interdiction[sink_27,sink_19] 0
interdiction[sink_10,sink_11] 0
interdiction[sink_10,innode_2] 0
interdiction[sink_10,innode_3] 0
interdiction[innode_6,sink_25] 0
interdiction[sink_11,innode_1] 0
interdiction[sink_19,innode_2] 0
interdiction[source_3,innode_4] 0
interdiction[source_2,innode_7] 0
interdiction[sink_3,innode_8] 0
WCcheckFlow[source_1,sink_3] 39
WCcheckFlow[innode_1,sink_16] 1
WCcheckFlow[innode_6,sink_13] 13
WCcheckFlow[sink_13,sink_14] 12
WCcheckFlow[sink_14,sink_10] 11
WCcheckFlow[sink_25,sink_26] 15
WCcheckFlow[sink_26,sink_9] 12
WCcheckFlow[sink_9,sink_18] 11
WCcheckFlow[sink_26,sink_4] 2
WCcheckFlow[sink_4,sink_20] 1
WCcheckFlow[sink_18,sink_6] 10
WCcheckFlow[sink_25,innode_8] -36
WCcheckFlow[sink_6,sink_7] 7
WCcheckFlow[sink_6,sink_22] 2
WCcheckFlow[sink_7,sink_24] 3
WCcheckFlow[sink_22,sink_1] 1
WCcheckFlow[sink_24,sink_21] 2
WCcheckFlow[sink_21,sink_12] 1
WCcheckFlow[sink_7,sink_5] 3
WCcheckFlow[sink_5,sink_17] 2
WCcheckFlow[sink_17,sink_4] 0
WCcheckFlow[sink_17,sink_8] 1
WCcheckFlow[sink_3,sink_23] 1
WCcheckFlow[sink_8,sink_20] 0
WCcheckFlow[sink_25,sink_20] 0
WCcheckFlow[sink_25,sink_15] 6
WCcheckFlow[sink_15,sink_29] 5
WCcheckFlow[sink_29,sink_28] 1
WCcheckFlow[sink_29,sink_2] 1
WCcheckFlow[sink_2,sink_15] 0
WCcheckFlow[sink_29,innode_7] 2
WCcheckFlow[innode_4,sink_19] -4
WCcheckFlow[sink_19,innode_3] -5
WCcheckFlow[innode_4,innode_5] 2
WCcheckFlow[sink_27,innode_5] -1
WCcheckFlow[sink_27,sink_19] 0
WCcheckFlow[sink_10,sink_11] 3
WCcheckFlow[sink_10,innode_2] 1
WCcheckFlow[sink_10,innode_3] 6
WCcheckFlow[innode_6,sink_25] -14
WCcheckFlow[sink_11,innode_1] 2
WCcheckFlow[sink_19,innode_2] 0
WCcheckFlow[source_3,innode_4] -1
WCcheckFlow[source_2,innode_7] -1
WCcheckFlow[sink_3,innode_8] 37
